\ENCODING=ISO-8859-1
\Problem name: IloCplex

Minimize
 obj1: X_1 + X_2 + X_3 + X_4 + X_5 + x6 + x7 + x8
Subject To
 c1: 4 X_1 + x7 + x8 >= 50
 c2: 2 X_2 + x6 + 2 x7 + x8 >= 36
 c3: 2 X_3 + x8 >= 24
 c4: 2 X_4 >= 8
 c5: X_5 + x6 >= 30
End
